param n := 120;
param c := 1500
param : V : p w :=
   0	  71	  61
   1	 106	  96
   2	 101	  91
   3	  47	  37
   4	  63	  53
   5	  86	  76
   6	  60	  50
   7	  76	  66
   8	  80	  70
   9	  97	  87
  10	 102	  92
  11	  45	  35
  12	  63	  53
  13	 105	  95
  14	  57	  47
  15	  66	  56
  16	  65	  55
  17	  96	  86
  18	  42	  32
  19	 109	  99
  20	  93	  83
  21	  98	  88
  22	  51	  41
  23	  73	  63
  24	  87	  77
  25	  70	  60
  26	  76	  66
  27	  63	  53
  28	  89	  79
  29	  91	  81
  30	 106	  96
  31	  44	  34
  32	 109	  99
  33	  57	  47
  34	  84	  74
  35	  97	  87
  36	  54	  44
  37	  87	  77
  38	  62	  52
  39	 109	  99
  40	  79	  69
  41	  74	  64
  42	 104	  94
  43	  48	  38
  44	  79	  69
  45	  71	  61
  46	 108	  98
  47	  50	  40
  48	  94	  84
  49	  99	  89
  50	  59	  49
  51	  74	  64
  52	  63	  53
  53	  51	  41
  54	  44	  34
  55	  95	  85
  56	  45	  35
  57	  65	  55
  58	  71	  61
  59	  78	  68
  60	 110	 100
  61	  85	  75
  62	 108	  98
  63	  46	  36
  64	  54	  44
  65	  67	  57
  66	  34	  24
  67	  70	  60
  68	  55	  45
  69	  58	  48
  70	  70	  60
  71	 104	  94
  72	  81	  71
  73	  80	  70
  74	  74	  64
  75	  72	  62
  76	 103	  93
  77	  30	  20
  78	  79	  69
  79	  47	  37
  80	  73	  63
  81	  71	  61
  82	  36	  26
  83	  64	  54
  84	  99	  89
  85	  56	  46
  86	  64	  54
  87	  60	  50
  88	  42	  32
  89	  81	  71
  90	  72	  62
  91	  50	  40
  92	  36	  26
  93	  69	  59
  94	  72	  62
  95	  37	  27
  96	  70	  60
  97	  60	  50
  98	  84	  74
  99	  44	  34
 100	  50	  40
 101	  80	  70
 102	  66	  56
 103	  33	  23
 104	  76	  66
 105	  67	  57
 106	  53	  43
 107	  55	  45
 108	  75	  65
 109	  35	  25
 110	  92	  82
 111	  92	  82
 112	  47	  37
 113	  76	  66
 114	  57	  47
 115	  54	  44
 116	 104	  94
 117	  33	  23
 118	  34	  24
 119	  61	  51
;

set E :=
   0	   3
   0	   5
   0	  13
   0	  14
   0	  23
   0	  28
   0	  31
   0	  38
   0	  47
   0	  57
   0	  75
   0	  77
   0	 106
   1	   9
   1	  11
   1	  20
   1	  23
   1	  24
   1	  25
   1	  50
   1	  62
   1	  73
   1	  95
   1	 102
   1	 110
   2	   7
   2	  19
   2	  21
   2	  27
   2	  29
   2	  43
   2	  48
   2	  49
   2	  54
   2	  55
   2	  62
   2	  79
   2	  85
   3	  10
   3	  15
   3	  24
   3	  69
   3	  76
   3	  89
   3	  90
   3	 104
   4	   9
   4	  10
   4	  15
   4	  18
   4	  31
   4	  37
   4	  44
   4	  49
   4	  50
   4	  52
   4	  58
   4	  64
   4	  65
   4	  71
   4	  77
   4	  85
   4	 101
   4	 102
   4	 108
   4	 113
   4	 117
   4	 118
   5	  26
   5	  33
   5	  37
   5	  54
   5	  81
   5	 113
   6	   8
   6	  20
   6	  23
   6	  26
   6	  30
   6	  31
   6	  40
   6	  50
   6	  88
   6	  90
   6	  93
   6	  97
   6	 103
   6	 107
   6	 114
   7	  16
   7	  17
   7	  18
   7	  47
   7	  50
   7	  55
   7	  59
   7	  73
   7	  82
   7	  93
   8	  13
   8	  21
   8	  41
   8	  42
   8	  46
   8	  51
   8	  64
   8	  67
   8	  69
   8	  71
   8	  80
   8	  86
   8	 100
   8	 101
   9	  15
   9	  22
   9	  39
   9	  44
   9	  54
   9	  67
   9	  72
   9	  87
   9	  89
   9	  93
   9	 103
   9	 119
  10	  64
  10	  76
  10	  77
  10	  83
  10	  87
  10	 101
  10	 116
  11	  18
  11	  33
  11	  45
  11	  47
  11	  50
  11	  76
  11	  83
  11	  85
  11	  89
  11	  90
  11	  95
  11	  97
  11	  98
  11	 101
  12	  13
  12	  20
  12	  25
  12	  28
  12	  38
  12	  48
  12	  50
  12	  60
  12	  70
  12	 107
  12	 112
  13	  18
  13	  51
  13	  60
  13	  71
  13	  74
  13	  78
  13	  80
  14	  28
  14	  73
  14	  81
  14	  85
  14	  88
  14	 101
  15	  19
  15	  60
  15	  62
  15	  92
  15	 115
  15	 118
  16	  23
  16	  28
  16	  36
  16	  50
  16	  67
  16	  72
  16	  80
  16	  99
  16	 102
  16	 103
  16	 108
  17	  19
  17	  26
  17	  27
  17	  55
  17	  72
  18	  20
  18	  27
  18	  44
  18	  49
  18	  52
  18	  54
  18	  65
  18	  68
  18	  78
  18	  80
  18	  82
  18	  83
  18	  91
  18	  94
  18	 100
  18	 110
  18	 116
  18	 119
  19	  26
  19	  37
  19	  48
  19	  69
  19	  72
  19	  88
  19	  97
  19	  98
  19	 112
  20	  23
  20	  40
  20	  46
  20	  54
  20	  73
  20	  77
  20	  83
  20	  86
  20	 103
  20	 107
  20	 109
  20	 117
  20	 118
  21	  22
  21	  24
  21	  37
  21	  44
  21	  46
  21	  61
  21	  62
  21	  65
  21	  74
  21	  76
  21	  79
  21	  95
  21	 111
  21	 119
  22	  29
  22	  49
  22	  89
  22	  90
  22	  92
  22	  96
  22	 106
  22	 107
  22	 110
  23	  69
  23	  73
  23	  74
  23	  76
  23	  90
  23	 116
  23	 118
  24	  25
  24	  35
  24	  36
  24	  40
  24	  52
  24	  72
  24	 102
  24	 103
  24	 108
  24	 110
  24	 116
  25	  29
  25	  39
  25	  43
  25	  49
  25	  85
  25	  89
  25	  90
  25	 106
  25	 112
  25	 119
  26	  29
  26	  40
  26	  45
  26	  47
  26	  54
  26	  55
  26	  81
  26	  94
  26	 118
  27	  50
  27	  60
  27	  62
  27	  67
  27	  77
  27	  92
  27	  99
  27	 106
  27	 115
  28	  40
  28	  46
  28	  73
  28	  76
  28	  83
  28	  87
  28	  96
  28	  99
  28	 102
  28	 108
  28	 111
  29	  33
  29	  39
  29	  58
  29	  61
  29	  68
  29	  69
  29	  79
  29	  85
  29	  89
  29	 106
  29	 107
  29	 108
  30	  31
  30	  37
  30	  43
  30	  45
  30	  48
  30	  79
  30	  88
  30	  95
  30	  99
  30	 100
  30	 109
  30	 116
  31	  58
  31	  59
  31	  60
  31	  68
  31	  93
  31	 101
  32	  42
  32	  55
  32	  57
  32	  61
  32	  78
  32	  90
  32	  93
  32	  94
  32	 102
  32	 110
  33	  38
  33	  47
  33	  51
  33	  72
  33	  91
  33	  96
  33	 100
  33	 116
  34	  44
  34	  66
  34	  68
  34	  73
  34	  83
  34	  84
  34	 103
  34	 111
  35	  40
  35	  44
  35	  52
  35	  56
  35	  59
  35	  86
  35	 116
  36	  45
  36	  46
  36	  52
  36	  75
  36	 101
  36	 103
  36	 114
  37	  45
  37	  50
  37	  52
  37	  54
  37	  60
  37	  75
  37	  77
  37	  79
  37	  87
  37	  88
  37	  89
  37	 111
  37	 112
  37	 113
  37	 115
  38	  42
  38	  60
  38	  65
  38	  77
  38	  84
  38	  96
  38	 105
  38	 114
  38	 116
  39	  45
  39	  62
  39	  65
  39	  77
  39	  82
  39	  96
  39	 114
  40	  43
  40	  90
  40	  91
  40	  93
  40	  96
  40	 109
  40	 119
  41	  44
  41	  45
  41	  54
  41	  69
  41	  78
  41	  87
  41	  96
  42	  48
  42	  55
  42	  57
  42	  61
  42	  63
  42	  67
  42	  85
  42	  90
  42	  96
  42	 102
  42	 114
  43	  45
  43	  46
  43	  47
  43	  49
  43	  68
  43	  71
  43	  92
  43	  93
  43	 104
  43	 114
  43	 117
  44	  49
  44	  54
  44	  58
  44	  62
  44	  63
  44	  74
  44	  82
  44	  87
  44	 102
  44	 112
  45	  46
  45	  68
  45	  80
  45	  91
  45	  95
  45	 114
  46	  55
  46	  60
  46	  68
  46	  81
  46	  86
  46	 103
  47	  59
  47	  60
  47	  89
  47	  92
  48	  72
  48	  77
  48	  87
  48	  90
  48	  99
  48	 103
  48	 112
  49	  59
  49	  80
  49	  92
  49	  97
  49	 117
  50	  62
  50	  63
  50	  73
  50	  76
  50	  83
  50	  85
  50	  95
  51	  57
  51	  77
  51	  80
  51	  82
  51	  83
  51	  84
  51	  96
  52	  60
  52	  63
  52	  78
  52	  80
  52	  93
  52	 103
  53	  60
  53	  69
  53	  79
  53	  86
  53	  88
  53	  99
  53	 104
  53	 108
  53	 119
  54	  61
  54	  86
  54	  91
  54	  94
  54	  96
  54	  98
  54	 100
  54	 104
  54	 116
  54	 117
  55	  60
  55	  79
  55	 100
  55	 112
  56	  59
  56	  64
  56	  79
  56	  80
  57	  64
  57	  67
  57	  71
  57	  72
  57	  74
  57	  85
  57	  86
  57	  94
  57	  99
  57	 109
  57	 113
  57	 119
  58	  60
  58	  85
  59	  62
  59	  68
  59	  75
  59	  83
  59	  87
  59	  89
  59	 115
  59	 118
  59	 119
  60	  73
  60	  88
  60	  91
  60	 107
  60	 119
  61	  62
  61	  63
  61	  64
  61	  80
  61	 110
  62	  73
  62	  74
  62	  76
  62	  90
  62	  92
  62	 108
  63	  66
  63	  73
  63	  75
  64	  65
  64	  70
  64	  75
  64	  95
  64	 103
  64	 111
  64	 112
  65	  70
  65	  72
  65	  73
  65	  76
  65	  87
  65	  99
  65	 103
  65	 105
  66	  83
  67	  69
  67	  80
  67	 105
  68	  76
  68	 105
  68	 118
  69	  83
  69	  99
  69	 111
  70	  71
  70	  81
  70	  83
  70	  86
  70	 102
  70	 109
  71	  80
  71	 107
  71	 114
  72	  77
  72	  99
  73	  87
  73	  90
  73	  92
  73	 101
  73	 110
  74	  80
  74	  85
  74	  86
  74	 106
  74	 114
  75	  82
  75	 103
  75	 116
  75	 117
  76	  83
  77	  92
  77	 102
  77	 103
  77	 106
  77	 111
  77	 115
  78	  93
  78	  95
  78	 107
  78	 117
  79	 100
  79	 119
  80	  82
  80	  97
  80	 101
  80	 103
  80	 111
  80	 118
  81	  82
  81	  83
  81	  92
  81	 112
  82	  94
  82	 106
  82	 110
  82	 114
  83	 103
  84	 102
  84	 103
  84	 104
  84	 110
  84	 111
  84	 112
  85	 119
  86	  88
  86	  95
  86	  98
  86	 100
  86	 105
  86	 114
  86	 119
  87	 102
  88	  93
  88	  98
  88	 100
  89	  99
  89	 107
  89	 118
  90	 107
  90	 114
  91	  98
  91	 104
  91	 119
  92	  97
  92	 101
  92	 110
  92	 115
  93	  94
  93	  99
  93	 109
  94	 105
  94	 108
  94	 112
  94	 117
  95	 107
  95	 119
  96	 101
  97	 116
  98	 107
  99	 113
 100	 103
 100	 108
 100	 111
 102	 112
 103	 105
 103	 116
 103	 117
 104	 107
 104	 111
 104	 115
 104	 118
 106	 108
 106	 112
 107	 108
 109	 114
 109	 115
 109	 119
 110	 114
 110	 119
 111	 114
 113	 117
 114	 117
 118	 119
;
